# Solution for model GasLib-40
# Objective value = 1.1858213121349941e+01
loadshed[innode_1] 0
loadshed[innode_2] 0
loadshed[innode_3] 0
loadshed[innode_4] 0
loadshed[innode_5] 0
loadshed[innode_6] 0
loadshed[innode_7] 0
loadshed[innode_8] 0
loadshed[source_1] -3.0502512553785488e-01
loadshed[source_2] 5.0345451901206428e-02
loadshed[source_3] 3.2968879682878749e-01
loadshed[sink_1] 0
loadshed[sink_2] 0
loadshed[sink_3] 0
loadshed[sink_4] 0
loadshed[sink_5] 0
loadshed[sink_6] 0
loadshed[sink_7] 0
loadshed[sink_8] 0
loadshed[sink_9] 0
loadshed[sink_10] 0
loadshed[sink_11] 0
loadshed[sink_12] 7.2508819085961418e-01
loadshed[sink_13] 0
loadshed[sink_14] 0
loadshed[sink_15] 0
loadshed[sink_16] 0
loadshed[sink_17] 0
loadshed[sink_18] 0
loadshed[sink_19] 0
loadshed[sink_20] 0
loadshed[sink_21] 0
loadshed[sink_22] 0
loadshed[sink_23] 0
loadshed[sink_24] 0
loadshed[sink_25] 0
loadshed[sink_26] 0
loadshed[sink_27] 0
loadshed[sink_28] 0
loadshed[sink_29] 0
flow[source_1,sink_3] 2.0631178460325879e+02
flow[innode_1,sink_16] 1.6354166666666970e+01
flow[innode_6,sink_13] 8.5094823597868370e+00
flow[sink_13,sink_14] -7.8446843068798309e+00
flow[sink_14,sink_10] -2.4198850973546541e+01
flow[sink_25,sink_26] 1.7472102766430748e+02
flow[sink_26,sink_9] 1.3532928687865009e+02
flow[sink_9,sink_18] 1.1897512021198342e+02
flow[sink_26,sink_4] 2.3037574118990481e+01
flow[sink_4,sink_20] -1.6802734840215447e+01
flow[sink_18,sink_6] 1.0262095354531675e+02
flow[sink_25,innode_8] -1.7360345126992240e+02
flow[sink_6,sink_7] 5.3558453545316738e+01
flow[sink_6,sink_22] 3.2708333333333641e+01
flow[sink_7,sink_24] 3.7204286878650066e+01
flow[sink_22,sink_1] 1.6354166666666970e+01
flow[sink_24,sink_21] 2.0850120211983395e+01
flow[sink_21,sink_12] 4.4959535453167270e+00
flow[sink_7,sink_5] 0
flow[sink_5,sink_17] -1.6354166666667197e+01
flow[sink_17,sink_4] -2.3486142292539260e+01
flow[sink_17,sink_8] -9.2221910407946055e+00
flow[sink_3,sink_23] 16.3541666666697
flow[sink_8,sink_20] -2.5576357707461273e+01
flow[sink_25,sink_20] 5.8733259214343434e+01
flow[sink_25,sink_15] -8.4714484635182842e+01
flow[sink_15,sink_29] -1.0106865130184951e+02
flow[sink_29,sink_28] 1.6354166666667879e+01
flow[sink_29,sink_2] 1.6354166666684250e+01
flow[sink_2,sink_15] 0
flow[sink_29,innode_7] -1.5013115130186830e+02
flow[innode_4,sink_19] 1.0596968430689343e+02
flow[sink_19,innode_3] 3.5751230039096619e+01
flow[innode_4,innode_5] 0
flow[sink_27,innode_5] 0
flow[sink_27,sink_19] -1.6354166666679703e+01
flow[sink_10,sink_11] 3.2708333333333641e+01
flow[sink_10,innode_2] -3.7510120934450434e+01
flow[sink_10,innode_3] -3.5751230039096619e+01
flow[innode_6,sink_25] -8.5094823597868370e+00
flow[sink_11,innode_1] 1.6354166666666970e+01
flow[sink_19,innode_2] 3.7510120934450434e+01
flow[source_3,innode_4] 1.0596968430689343e+02
flow[source_2,innode_7] 1.5013115130186830e+02
flow[sink_3,innode_8] 1.7360345126992240e+02
pressure[innode_1] 7.4585881955570613e+01
pressure[innode_2] 76.7201480764332
pressure[innode_3] 7.6640981025899251e+01
pressure[innode_4] 81.01325
pressure[innode_5] 81.01325
pressure[innode_6] 7.3625884214241580e+01
pressure[innode_7] 81.01325
pressure[innode_8] 8.0323628518029707e+01
pressure[source_1] 81.01325
pressure[source_2] 81.01325
pressure[source_3] 81.01325
pressure[sink_1] 4.4074340679958894e+01
pressure[sink_2] 7.6583560342320879e+01
pressure[sink_3] 8.0323628518029707e+01
pressure[sink_4] 5.8391328046421762e+01
pressure[sink_5] 56.2754979258065
pressure[sink_6] 4.6175418290346265e+01
pressure[sink_7] 45.4401883872002
pressure[sink_8] 57.8417423577936
pressure[sink_9] 5.3220577748851682e+01
pressure[sink_10] 7.4737583263174159e+01
pressure[sink_11] 7.4585881955570613e+01
pressure[sink_12] 1.0132500000000011e+00
pressure[sink_13] 7.3578972860058684e+01
pressure[sink_14] 73.5930115908452
pressure[sink_15] 7.4036832012365750e+01
pressure[sink_16] 7.3564232120752933e+01
pressure[sink_17] 5.7493765131161247e+01
pressure[sink_18] 4.8915703292738343e+01
pressure[sink_19] 76.7201480764332
pressure[sink_20] 5.9624054802752951e+01
pressure[sink_21] 2.6131563359197023e+00
pressure[sink_22] 45.1381098223139
pressure[sink_23] 8.0158910506369921e+01
pressure[sink_24] 2.8440520451953830e+00
pressure[sink_25] 7.3625884214241580e+01
pressure[sink_26] 6.1320384843813748e+01
pressure[sink_27] 76.3690180792897
pressure[sink_28] 7.6702547567167358e+01
pressure[sink_29] 7.6997829840784533e+01
interdiction[source_1,sink_3] 0
interdiction[innode_1,sink_16] 0
interdiction[innode_6,sink_13] 0
interdiction[sink_13,sink_14] 0
interdiction[sink_14,sink_10] 0
interdiction[sink_25,sink_26] 0
interdiction[sink_26,sink_9] 0
interdiction[sink_9,sink_18] 0
interdiction[sink_26,sink_4] 0
interdiction[sink_4,sink_20] 0
interdiction[sink_18,sink_6] 0
interdiction[sink_25,innode_8] 0
interdiction[sink_6,sink_7] 0
interdiction[sink_6,sink_22] 0
interdiction[sink_7,sink_24] 0
interdiction[sink_22,sink_1] 0
interdiction[sink_24,sink_21] 0
interdiction[sink_21,sink_12] 0
interdiction[sink_7,sink_5] 1
interdiction[sink_5,sink_17] 0
interdiction[sink_17,sink_4] 0
interdiction[sink_17,sink_8] 0
interdiction[sink_3,sink_23] 0
interdiction[sink_8,sink_20] 0
interdiction[sink_25,sink_20] 0
interdiction[sink_25,sink_15] 0
interdiction[sink_15,sink_29] 0
interdiction[sink_29,sink_28] 0
interdiction[sink_29,sink_2] 0
interdiction[sink_2,sink_15] 1
interdiction[sink_29,innode_7] 0
interdiction[innode_4,sink_19] 0
interdiction[sink_19,innode_3] 0
interdiction[innode_4,innode_5] 0
interdiction[sink_27,innode_5] 1
interdiction[sink_27,sink_19] 0
interdiction[sink_10,sink_11] 0
interdiction[sink_10,innode_2] 0
interdiction[sink_10,innode_3] 0
interdiction[innode_6,sink_25] 0
interdiction[sink_11,innode_1] 0
interdiction[sink_19,innode_2] 0
interdiction[source_3,innode_4] 0
interdiction[source_2,innode_7] 0
interdiction[sink_3,innode_8] 0
WCcheckFlow[source_1,sink_3] 39
WCcheckFlow[innode_1,sink_16] 1
WCcheckFlow[innode_6,sink_13] 13
WCcheckFlow[sink_13,sink_14] 12
WCcheckFlow[sink_14,sink_10] 11
WCcheckFlow[sink_25,sink_26] 15
WCcheckFlow[sink_26,sink_9] 9
WCcheckFlow[sink_9,sink_18] 8
WCcheckFlow[sink_26,sink_4] 5
WCcheckFlow[sink_4,sink_20] 1
WCcheckFlow[sink_18,sink_6] 7
WCcheckFlow[sink_25,innode_8] -36
WCcheckFlow[sink_6,sink_7] 4
WCcheckFlow[sink_6,sink_22] 2
WCcheckFlow[sink_7,sink_24] 3
WCcheckFlow[sink_22,sink_1] 1
WCcheckFlow[sink_24,sink_21] 2
WCcheckFlow[sink_21,sink_12] 1
WCcheckFlow[sink_7,sink_5] 0
WCcheckFlow[sink_5,sink_17] -1
WCcheckFlow[sink_17,sink_4] -3
WCcheckFlow[sink_17,sink_8] 1
WCcheckFlow[sink_3,sink_23] 1
WCcheckFlow[sink_8,sink_20] 0
WCcheckFlow[sink_25,sink_20] 0
WCcheckFlow[sink_25,sink_15] 6
WCcheckFlow[sink_15,sink_29] 5
WCcheckFlow[sink_29,sink_28] 1
WCcheckFlow[sink_29,sink_2] 1
WCcheckFlow[sink_2,sink_15] 0
WCcheckFlow[sink_29,innode_7] 2
WCcheckFlow[innode_4,sink_19] -3
WCcheckFlow[sink_19,innode_3] -5
WCcheckFlow[innode_4,innode_5] 1
WCcheckFlow[sink_27,innode_5] 0
WCcheckFlow[sink_27,sink_19] -1
WCcheckFlow[sink_10,sink_11] 3
WCcheckFlow[sink_10,innode_2] 1
WCcheckFlow[sink_10,innode_3] 6
WCcheckFlow[innode_6,sink_25] -14
WCcheckFlow[sink_11,innode_1] 2
WCcheckFlow[sink_19,innode_2] 0
WCcheckFlow[source_3,innode_4] -1
WCcheckFlow[source_2,innode_7] -1
WCcheckFlow[sink_3,innode_8] 37
